
%FILE DATA:	Soccer Computational Problem for MiniZinc Models	%
%AUTHOR:	Jack Wall	%
%CONTACT:  	116397063@umail.ucc.ie			%
%LAST UPDATE:	03/02/2020, 18:19:35						%
%DESCRIPTION: 	66 games played with 44 games left				%


n=11; %number of teams

%Games to play
games=[|9,8|6,9|7,5|7,2|7,9|8,5|9,3|10,5|5,1|1,10|6,2|4,5|6,7|7,11|11,8|11,2|2,4|4,6|3,9|9,4|9,7|5,7|11,4|8,1|3,1|4,2|11,7|2,5|5,11|2,9|1,2|8,3|2,3|6,5|9,2|9,1|8,4|5,9|8,7|8,9|4,1|4,10|7,8|1,11|];

%Initial points
iPoints=[21,15,10,15,9,22,19,10,17,16,18];

%POSITION CONSTRAINTS
% [|teamID, operator, position|...]
% operators index:
%  1 for =  operator
%  2 for >  operator
%  3 for >= operator
%  4 for <  operator
%  5 for <= operator
positionConstraints=[|9,5,1|6,5,2|7,5,3|];